files/upTests/_zothers/mutiMatixMatixTupleTuple/0001.eprime.solution
language ESSENCE' 1.0
$ minion Nodes: 1
$ minion TotalTime: 0.000587
$ Savile Row TotalTime: 0.314
letting pain_tuple1 be [1, 1]
letting pain_tuple2_tuple1 be [[12], 
[12]]
letting pain_tuple2_tuple2_tuple2 be [[33], 
[33]]
letting pain_tuple2_tuple2_tuple1 be [[44], 
[44]]
